# Solution for model MISC06
# Objective value = 1.2850860737382543e+04
CL0001 3.1214999999999997e+00
CL0002 2.5316455696202529e+00
CL0003 2.8524
CL0004 3.2500000000001030e+00
CL0005 3.2500000000000151e+00
CL0006 1.4
CL0007 1.4000000000000057e+00
CL0008 1.4000000000000212e+00
CL0009 1.4000000000000079e+00
CL0010 2.9000000000000004e+00
CL0011 1.1
CL0012 1.1000000000000003e+00
CL0013 1.1000000000000019e+00
CL0014 4.0975575011939176e+00
CL0015 7.7875575011939162e+00
CL0016 0
CL0017 0
CL0018 0
CL0019 0
CL0020 0
CL0021 0
CL0022 0
CL0023 0
CL0024 0
CL0025 0
CL0026 0
CL0027 0
CL0028 0
CL0029 0
CL0030 0
CL0031 0
CL0032 0
CL0033 0
CL0034 0
CL0035 0
CL0036 0
CL0037 0
CL0038 0
CL0039 0
CL0040 0
CL0041 0
CL0042 0
CL0043 0
CL0044 0
CL0045 0
CL0046 0
CL0047 2.4
CL0048 4.8
CL0049 6.435
CL0050 7.7375202184019827e+00
CL0051 0.98
CL0052 9.8000000000000587e-01
CL0053 0.980000000000022
CL0054 9.8000000000000820e-01
CL0055 9.7999999999999865e-01
CL0056 8.6210000000000009e-01
CL0057 1
CL0058 1
CL0059 1.0000000000000897e+00
CL0060 1
CL0061 0
CL0062 1.8867000000000016e+00
CL0063 1.8867000000000016e+00
CL0064 1.8867000000000016e+00
CL0065 1.8867000000000016e+00
CL0066 0
CL0067 1.6350000000000002e+00
CL0068 3.0781371669955981e+00
CL0069 3.0781371669955977e+00
CL0070 3.0781371669955977e+00
CL0071 1.5
CL0072 7.5691880417489488e-01
CL0073 1.5
CL0074 1.5
CL0075 1.5
CL0076 2.2077922077922071e-01
CL0077 2.2077922077921866e-01
CL0078 0.220779220779208
CL0079 2.2077922077923107e-01
CL0080 8.4999999999999987e-01
CL0081 0
CL0082 0
CL0083 0
CL0084 0
CL0085 0
CL0086 0
CL0087 0
CL0088 0
CL0089 0
CL0090 0
CL0091 0
CL0092 0
CL0093 0
CL0094 0
CL0095 0
CL0096 0
CL0097 0
CL0098 0
CL0099 0
CL0100 0
CL0101 0
CL0102 0
CL0103 0
CL0104 0
CL0105 0
CL0106 0
CL0107 0
CL0108 0
CL0109 0
CL0110 0
CL0111 0
CL0112 0
CL0113 0
CL0114 0
CL0115 0
CL0116 0
CL0117 2.2018348623853208e+00
CL0118 4.4036697247706416e+00
CL0119 5.9036697247706416e+00
CL0120 7.0986424022036534e+00
CL0121 1.13
CL0122 1.1300000000000066e+00
CL0123 1.1300000000000219e+00
CL0124 1.1300000000000088e+00
CL0125 1.13
CL0126 0.56
CL0127 9.1743119266055040e-01
CL0128 9.1743119266055040e-01
CL0129 9.1743119266055040e-01
CL0130 9.1743119266055040e-01
CL0131 0
CL0132 1.5
CL0133 1.5
CL0134 1.5
CL0135 1.5
CL0136 0
CL0137 1.5
CL0138 2.8239790522895394e+00
CL0139 2.8239790522895389e+00
CL0140 2.8239790522895389e+00
CL0141 2.0699999999999994e+00
CL0142 1.9339853108121856e+00
CL0143 0
CL0144 0
CL0145 0
CL0146 0
CL0147 0
CL0148 0
CL0149 0
CL0150 0
CL0151 2.6153846153846150e-01
CL0152 2.6153846153846327e-01
CL0153 2.6153846153847593e-01
CL0154 0
CL0155 0
CL0156 0
CL0157 0
CL0158 0
CL0159 0
CL0160 0
CL0161 0
CL0162 0
CL0163 0
CL0164 0
CL0165 0
CL0166 0
CL0167 0
CL0168 0
CL0169 0
CL0170 0
CL0171 0
CL0172 0
CL0173 0
CL0174 0
CL0175 0
CL0176 0
CL0177 1.3601468918781420e-01
CL0178 2.07
CL0179 2.5548780487806262e+00
CL0180 2.5548780487805058e+00
CL0181 1.5
CL0182 1.5000000000000091e+00
CL0183 1.5000000000000380e+00
CL0184 1.5
CL0185 2.7384146341463422e+00
CL0186 1.0384615384615385e+00
CL0187 1.0384615384615368e+00
CL0188 1.0384615384615241e+00
CL0189 4.9970213429194112e+00
CL0190 9.49702134291941
CL0191 0
CL0192 0
CL0193 0
CL0194 0
CL0195 0
CL0196 0
CL0197 0
CL0198 0
CL0199 0
CL0200 0
CL0201 0
CL0202 0
CL0203 0
CL0204 0
CL0205 0
CL0206 0
CL0207 0
CL0208 0
CL0209 0
CL0210 0
CL0211 0
CL0212 0
CL0213 0
CL0214 0
CL0215 0
CL0216 4
CL0217 0
CL0218 0
CL0219 0
CL0220 0
CL0221 3.4240679999999997e+00
CL0222 4.2425986667000011e+00
CL0223 0
CL0224 0
CL0225 0
CL0226 0
CL0227 0
CL0228 0
CL0229 0
CL0230 0
CL0231 4
CL0232 0
CL0233 0
CL0234 0
CL0235 0
CL0236 0
CL0237 2.1874013332999986e+00
CL0238 5.4792653334000017e+00
CL0239 0
CL0240 0
CL0241 0
CL0242 0
CL0243 0
CL0244 0
CL0245 0
CL0246 0
CL0247 4
CL0248 0
CL0249 0
CL0250 0
CL0251 0
CL0252 0
CL0253 2.8827346666
CL0254 4.7839320001
CL0255 0
CL0256 0
CL0257 0
CL0258 0
CL0259 0
CL0260 0
CL0261 0
CL0262 0
CL0263 4
CL0264 0
CL0265 0
CL0266 0
CL0267 0
CL0268 0
CL0269 7.6666666667
CL0270 0
CL0271 0
CL0272 0
CL0273 0
CL0274 0
CL0275 0
CL0276 0
CL0277 0
CL0278 5.0679199999999991e-01
CL0279 3.493208
CL0280 0
CL0281 0
CL0282 0
CL0283 0
CL0284 2.9038421850863880e+00
CL0285 4.7628244816136123e+00
CL0286 2.8485449999999997e+00
CL0287 2.4769367088607628e+00
CL0288 2.6790120000000130e+00
CL0289 2.9295000000000697e+00
CL0290 3.87450000000001
CL0291 0
CL0292 0
CL0293 0
CL0294 0
CL0295 0
CL0296 0
CL0297 0
CL0298 0
CL0299 0
CL0300 0
CL0301 0
CL0302 0
CL0303 0
CL0304 0
CL0305 0
CL0306 0
CL0307 0
CL0308 0
CL0309 0
CL0310 0
CL0311 0
CL0312 0
CL0313 0
CL0314 0
CL0315 0
CL0316 0
CL0317 0
CL0318 0
CL0319 0
CL0320 0
CL0321 0
CL0322 0
CL0323 0
CL0324 0
CL0325 0
CL0326 0
CL0327 0
CL0328 0
CL0329 0
CL0330 0
CL0331 0
CL0332 0
CL0333 0
CL0334 0
CL0335 0
CL0336 0
CL0337 0
CL0338 0
CL0339 0
CL0340 0
CL0341 0
CL0342 0
CL0343 0
CL0344 0
CL0345 0
CL0346 0
CL0347 0
CL0348 0
CL0349 0
CL0350 0
CL0351 0
CL0352 0
CL0353 0
CL0354 0
CL0355 0
CL0356 0
CL0357 0
CL0358 0
CL0359 0
CL0360 0
CL0361 3.5138752207792203e+00
CL0362 1.8086088009541288e+00
CL0363 1.2710214636792680e+00
CL0364 5.1329694759855417e-02
CL0365 0
CL0366 0.0561247792207793
CL0367 1.0183100032207659e+00
CL0368 2.2989785363207318e+00
CL0369 4.0035483540207606e+00
CL0370 4.0548780487805063e+00
CL0371 0
CL0372 0
CL0373 0
CL0374 0
CL0375 0
CL0376 0
CL0377 0
CL0378 0
CL0379 0
CL0380 0
CL0381 1.7207792207792207e+00
CL0382 1.7207792207792278e+00
CL0383 1.7207792207792461e+00
CL0384 1.7207792207792312e+00
CL0385 3.5884146341463419e+00
CL0386 0
CL0387 0
CL0388 0
CL0389 0
CL0390 0
CL0391 1.2554487792207789e+00
CL0392 1.5672902503853208e+00
CL0393 3.1287908461706415e+00
CL0394 7.4735272802900532e+00
CL0395 1.2034108744123062e+01
CL0396 0
CL0397 0
CL0398 0
CL0399 0
CL0400 0
CL0401 4.4551220779221135e-02
CL0402 1.934544612
CL0403 2.5748788786
CL0404 3.4271637874
CL0405 4.561555001
CL0406 0
CL0407 0
CL0408 0
CL0409 0
CL0410 0
CL0411 1.13
CL0412 1.1300000000000066e+00
CL0413 1.1300000000000219e+00
CL0414 1.1300000000000088e+00
CL0415 1.13
CL0416 0
CL0417 0
CL0418 0
CL0419 0
CL0420 0
CL0421 0.56
CL0422 9.1743119266055040e-01
CL0423 9.1743119266055040e-01
CL0424 9.1743119266055040e-01
CL0425 9.1743119266055040e-01
CL0426 0
CL0427 0
CL0428 0
CL0429 0
CL0430 0
CL0431 0
CL0432 0
CL0433 0
CL0434 0
CL0435 0
CL0436 0
CL0437 1.3
CL0438 1.3
CL0439 1.3
CL0440 9.5018268092684766e-01
CL0441 0
CL0442 0
CL0443 0
CL0444 0
CL0445 3.4981731907315261e-01
CL0446 0
CL0447 0
CL0448 0
CL0449 0
CL0450 0
CL0451 0
CL0452 1.5
CL0453 2.8239790522895394e+00
CL0454 2.8239790522895389e+00
CL0455 2.8239790522895389e+00
CL0456 0
CL0457 0
CL0458 0
CL0459 0
CL0460 0
CL0461 0
CL0462 0
CL0463 0
CL0464 0
CL0465 0
CL0466 0
CL0467 0
CL0468 0
CL0469 0
CL0470 0
CL0471 0
CL0472 0
CL0473 0
CL0474 0
CL0475 0
CL0476 0
CL0477 0
CL0478 0
CL0479 0
CL0480 0
CL0481 0
CL0482 0
CL0483 0
CL0484 0
CL0485 0
CL0486 0
CL0487 0
CL0488 0
CL0489 0
CL0490 0
CL0491 0
CL0492 0
CL0493 0
CL0494 0
CL0495 0
CL0496 0
CL0497 0
CL0498 0
CL0499 0
CL0500 0
CL0501 0
CL0502 0
CL0503 0
CL0504 0
CL0505 0
CL0506 0
CL0507 0
CL0508 0
CL0509 0
CL0510 0
CL0511 0
CL0512 0
CL0513 0
CL0514 0
CL0515 0
CL0516 0
CL0517 0
CL0518 0
CL0519 0
CL0520 0
CL0521 0
CL0522 0
CL0523 0
CL0524 0
CL0525 0
CL0526 0
CL0527 0
CL0528 0
CL0529 0
CL0530 0
CL0531 0
CL0532 0
CL0533 0
CL0534 0
CL0535 0
CL0536 0
CL0537 0
CL0538 0
CL0539 0
CL0540 0
CL0541 0
CL0542 0
CL0543 0
CL0544 0
CL0545 0
CL0546 0
CL0547 0
CL0548 0
CL0549 0
CL0550 0
CL0551 0
CL0552 0
CL0553 0
CL0554 0
CL0555 0
CL0556 0
CL0557 0
CL0558 0
CL0559 0
CL0560 0
CL0561 0
CL0562 0
CL0563 0
CL0564 0
CL0565 0
CL0566 0
CL0567 0
CL0568 0
CL0569 0
CL0570 0
CL0571 0
CL0572 0
CL0573 0
CL0574 0
CL0575 0
CL0576 0
CL0577 0
CL0578 0
CL0579 0
CL0580 0
CL0581 0
CL0582 0
CL0583 0
CL0584 0
CL0585 0
CL0586 0
CL0587 0
CL0588 0
CL0589 0
CL0590 0
CL0591 0
CL0592 0
CL0593 0
CL0594 0
CL0595 0
CL0596 0
CL0597 0
CL0598 0
CL0599 0
CL0600 0
CL0601 2.5170000000000003e-01
CL0602 0
CL0603 0
CL0604 0
CL0605 0
CL0606 0
CL0607 0
CL0608 0
CL0609 0
CL0610 0
CL0611 0
CL0612 0
CL0613 0
CL0614 0
CL0615 0
CL0616 0
CL0617 0
CL0618 0
CL0619 0
CL0620 0
CL0621 0
CL0622 0
CL0623 0
CL0624 0
CL0625 0
CL0626 0
CL0627 0
CL0628 0
CL0629 0
CL0630 0
CL0631 0
CL0632 2.5170000000000148e-01
CL0633 2.5170000000000203e-01
CL0634 2.5170000000000137e-01
CL0635 2.5170000000000137e-01
CL0636 0
CL0637 0
CL0638 0
CL0639 0
CL0640 0
CL0641 0
CL0642 0
CL0643 0
CL0644 0
CL0645 0
CL0646 0
CL0647 0
CL0648 0
CL0649 0
CL0650 0
CL0651 0
CL0652 0
CL0653 0
CL0654 0
CL0655 0
CL0656 0
CL0657 0
CL0658 0
CL0659 0
CL0660 0
CL0661 0
CL0662 0
CL0663 0
CL0664 0
CL0665 0
CL0666 0
CL0667 0
CL0668 0
CL0669 0
CL0670 0
CL0671 0
CL0672 0
CL0673 0
CL0674 0
CL0675 0
CL0676 0
CL0677 0
CL0678 0
CL0679 0
CL0680 0
CL0681 0
CL0682 0
CL0683 0
CL0684 0
CL0685 0
CL0686 0
CL0687 0
CL0688 0
CL0689 0
CL0690 0
CL0691 0
CL0692 0
CL0693 0
CL0694 0
CL0695 0
CL0696 0
CL0697 0
CL0698 0
CL0699 0
CL0700 0
CL0701 0
CL0702 0
CL0703 0
CL0704 0
CL0705 0
CL0706 0
CL0707 0
CL0708 0
CL0709 0
CL0710 0
CL0711 4.93197
CL0712 3.9999999999999996e+00
CL0713 4.506792
CL0714 3.493208
CL0715 0
CL0716 1.7156300000000004e+00
CL0717 0
CL0718 0
CL0719 0
CL0720 0
CL0721 0
CL0722 0
CL0723 0
CL0724 0
CL0725 0
CL0726 1.3523999999999998e+00
CL0727 0
CL0728 0
CL0729 0
CL0730 0
CL0731 0
CL0732 0
CL0733 0
CL0734 0
CL0735 0
CL0736 0
CL0737 0
CL0738 0
CL0739 0
CL0740 0
CL0741 0
CL0742 0
CL0743 0
CL0744 0
CL0745 0
CL0746 0
CL0747 0
CL0748 0
CL0749 0
CL0750 0
CL0751 4.9636999999999931e-01
CL0752 0
CL0753 0
CL0754 0
CL0755 0
CL0756 1.7380000000000002e+00
CL0757 5.05
CL0758 8.3620000000000019e+00
CL0759 1.5354440851886388e+01
CL0760 4.7628244816136123e+00
CL0761 0
CL0762 0
CL0763 0
CL0764 0
CL0765 0
CL0766 1.189698
CL0767 1.38
CL0768 0
CL0769 0
CL0770 0
CL0771 0
CL0772 0
CL0773 0
CL0774 0
CL0775 0
CL0776 0
CL0777 0
CL0778 0
CL0779 0
CL0780 0
CL0781 1.9665449999999998e+00
CL0782 1.5949367088607593e+00
CL0783 1.7970119999999998e+00
CL0784 2.0475000000000647e+00
CL0785 2.0475000000000096e+00
CL0786 8.8199999999999990e-01
CL0787 8.8200000000000356e-01
CL0788 8.8200000000001333e-01
CL0789 0.882000000000005
CL0790 1.8270000000000002e+00
CL0791 0
CL0792 0
CL0793 0
CL0794 0
CL0795 0
CL0796 0
CL0797 0
CL0798 0
CL0799 0
CL0800 0
CL0801 0
CL0802 0
CL0803 0
CL0804 0
CL0805 0
CL0806 0
CL0807 0
CL0808 0
CL0809 0
CL0810 0
CL0811 0
CL0812 0
CL0813 0
CL0814 0
CL0815 0
CL0816 0
CL0817 0
CL0818 0
CL0819 0
CL0820 0
CL0821 0
CL0822 0
CL0823 0
CL0824 0
CL0825 0
CL0826 0
CL0827 0
CL0828 0
CL0829 0
CL0830 0
CL0831 0
CL0832 0
CL0833 0
CL0834 0
CL0835 0
CL0836 0
CL0837 0
CL0838 0
CL0839 0
CL0840 0
CL0841 0
CL0842 0
CL0843 0
CL0844 0
CL0845 0
CL0846 0
CL0847 0
CL0848 0
CL0849 0
CL0850 0
CL0851 0
CL0852 0
CL0853 0
CL0854 0
CL0855 0
CL0856 0
CL0857 0
CL0858 0
CL0859 0
CL0860 0
CL0861 0
CL0862 0
CL0863 0
CL0864 0
CL0865 0
CL0866 0
CL0867 0
CL0868 0
CL0869 0
CL0870 0
CL0871 0
CL0872 0
CL0873 0
CL0874 0
CL0875 0
CL0876 0
CL0877 0
CL0878 0
CL0879 0
CL0880 0
CL0881 0
CL0882 0
CL0883 0
CL0884 0
CL0885 0
CL0886 0
CL0887 0
CL0888 0
CL0889 0
CL0890 0
CL0891 0
CL0892 0
CL0893 0
CL0894 0
CL0895 0
CL0896 0
CL0897 9.1199999999999992e-01
CL0898 1.8239999999999998e+00
CL0899 2.4453
CL0900 2.9402576829927534e+00
CL0901 0.3724
CL0902 3.7240000000000223e-01
CL0903 3.7240000000000834e-01
CL0904 3.7240000000000312e-01
CL0905 3.7239999999999951e-01
CL0906 3.2759800000000006e-01
CL0907 0.38
CL0908 0.38
CL0909 3.8000000000003409e-01
CL0910 0.38
CL0911 0
CL0912 7.1694600000000064e-01
CL0913 7.1694600000000064e-01
CL0914 7.1694600000000064e-01
CL0915 7.1694600000000064e-01
CL0916 0
CL0917 6.2130000000000007e-01
CL0918 1.1696921234583273e+00
CL0919 1.1696921234583271e+00
CL0920 1.1696921234583271e+00
CL0921 0
CL0922 0
CL0923 0
CL0924 0
CL0925 0
CL0926 0
CL0927 0
CL0928 0
CL0929 0
CL0930 0
CL0931 0
CL0932 1.4972477064220182e+00
CL0933 2.9944954128440364e+00
CL0934 4.0144954128440364e+00
CL0935 4.8270768334984844e+00
CL0936 0.7684
CL0937 7.6840000000000452e-01
CL0938 0.768400000000015
CL0939 0.768400000000006
CL0940 0.7684
CL0941 3.8080000000000008e-01
CL0942 6.2385321100917435e-01
CL0943 6.2385321100917435e-01
CL0944 6.2385321100917435e-01
CL0945 6.2385321100917435e-01
CL0946 0
CL0947 1.02
CL0948 1.02
CL0949 1.02
CL0950 1.02
CL0951 0
CL0952 1.02
CL0953 1.9203057555568870e+00
CL0954 1.9203057555568865e+00
CL0955 1.9203057555568865e+00
CL0956 0.7434
CL0957 5.1586511497213117e-01
CL0958 1.0125
CL0959 1.1337195121951553e+00
CL0960 1.1337195121951265e+00
CL0961 4.4785714285714284e-01
CL0962 4.4785714285714445e-01
CL0963 4.4785714285714812e-01
CL0964 4.4785714285714628e-01
CL0965 9.6510365853658553e-01
CL0966 2.9100000000000004e-01
CL0967 2.9099999999999981e-01
CL0968 2.9099999999999815e-01
CL0969 1.2492553357298528e+00
CL0970 2.3742553357298526e+00
CL0971 0
CL0972 0
CL0973 0
CL0974 0
CL0975 0
CL0976 0
CL0977 0
CL0978 0
CL0979 0
CL0980 0
CL0981 0
CL0982 0
CL0983 0
CL0984 0
CL0985 0
CL0986 0
CL0987 0
CL0988 0
CL0989 0
CL0990 0
CL0991 0
CL0992 0
CL0993 0
CL0994 0
CL0995 0
CL0996 0
CL0997 0
CL0998 1.5
CL0999 0
CL1000 0
CL1001 2.9975575011939180e+00
CL1002 3.6899999999999995e+00
CL1003 0
CL1004 0
CL1005 0
CL1006 0
CL1007 0
CL1008 0
CL1009 0
CL1010 0
CL1011 0
CL1012 0
CL1013 0
CL1014 0
CL1015 0
CL1016 0
CL1017 0
CL1018 0
CL1019 0
CL1020 0
CL1021 4.8487804878061619e-01
CL1022 0
CL1023 0
CL1024 0
CL1025 0
CL1026 1.2384146341463420e+00
CL1027 0
CL1028 0
CL1029 3.6970213429194119e+00
CL1030 4.5
CL1031 0
CL1032 0
CL1033 0
CL1034 0
CL1035 0
CL1036 0
CL1037 0
CL1038 0
CL1039 0
CL1040 0
CL1041 0
CL1042 0
CL1043 0
CL1044 0
CL1045 0
CL1046 0
CL1047 0
CL1048 0
CL1049 0
CL1050 0
CL1051 0
CL1052 0
CL1053 0
CL1054 0
CL1055 2.4
CL1056 2.4
CL1057 1.635
CL1058 1.3025202184019833e+00
CL1059 0
CL1060 0
CL1061 0
CL1062 0
CL1063 0
CL1064 0
CL1065 0
CL1066 0
CL1067 1.8867000000000016e+00
CL1068 0
CL1069 0
CL1070 0
CL1071 1.6350000000000002e+00
CL1072 1.4431371669955977e+00
CL1073 0
CL1074 0
CL1075 0
CL1076 0
CL1077 0
CL1078 0
CL1079 0
CL1080 0
CL1081 0
CL1082 0
CL1083 2.2018348623853208e+00
CL1084 2.2018348623853208e+00
CL1085 1.5
CL1086 1.1949726774330123e+00
CL1087 0
CL1088 0
CL1089 0
CL1090 0
CL1091 3.5743119266055035e-01
CL1092 0
CL1093 0
CL1094 0
CL1095 1.5
CL1096 0
CL1097 0
CL1098 0
CL1099 1.5
CL1100 1.3239790522895389e+00
CL1101 0
CL1102 0
CL1103 0
CL1104 0
CL1105 0
CL1106 0
CL1107 0
CL1108 0
CL1109 0
CL1110 0
CL1111 0
CL1112 0
CL1113 0
CL1114 0
CL1115 0
CL1116 0
CL1117 0
CL1118 0
CL1119 0
CL1120 0
CL1121 0
CL1122 0
CL1123 0
CL1124 0
CL1125 0
CL1126 0
CL1127 0
CL1128 0
CL1129 0
CL1130 0
CL1131 0
CL1132 0
CL1133 0
CL1134 0
CL1135 0
CL1136 0
CL1137 0
CL1138 1
CL1139 0
CL1140 0
CL1141 5.0081416626869413e-01
CL1142 2.7000000000000013e-01
CL1143 0
CL1144 0
CL1145 0
CL1146 0
CL1147 0
CL1148 0
CL1149 0
CL1150 0
CL1151 0
CL1152 0
CL1153 0
CL1154 0
CL1155 0
CL1156 0
CL1157 0
CL1158 0
CL1159 0
CL1160 0
CL1161 0
CL1162 0
CL1163 0
CL1164 0
CL1165 0
CL1166 0
CL1167 0
CL1168 0
CL1169 4.9918583373130587e-01
CL1170 7.2999999999999987e-01
CL1171 0
CL1172 0
CL1173 0
CL1174 0
CL1175 0
CL1176 0
CL1177 0
CL1178 0
CL1179 0
CL1180 0
CL1181 0
CL1182 0
CL1183 0
CL1184 0
CL1185 0
CL1186 0
CL1187 0
CL1188 0
CL1189 0
CL1190 0
CL1191 0
CL1192 0
CL1193 0
CL1194 0
CL1195 0
CL1196 0
CL1197 0
CL1198 0
CL1199 0
CL1200 0
CL1201 0
CL1202 0
CL1203 0
CL1204 0
CL1205 0
CL1206 0
CL1207 0
CL1208 0
CL1209 0
CL1210 0
CL1211 0
CL1212 0
CL1213 0
CL1214 0
CL1215 0
CL1216 0
CL1217 6.7674796747964572e-01
CL1218 1.1243783681891273e-13
CL1219 0
CL1220 0
CL1221 0
CL1222 1.7439024390243862e-01
CL1223 0
CL1224 0
CL1225 0
CL1226 0
CL1227 0
CL1228 0
CL1229 0
CL1230 0
CL1231 0
CL1232 0
CL1233 0
CL1234 0
CL1235 0
CL1236 0
CL1237 0
CL1238 0
CL1239 0
CL1240 0
CL1241 0
CL1242 0
CL1243 0
CL1244 0
CL1245 3.2325203252032608e-01
CL1246 0
CL1247 0
CL1248 0
CL1249 0
CL1250 8.2560975609756138e-01
CL1251 0
CL1252 0
CL1253 0.267659552360196
CL1254 0
CL1255 0
CL1256 0
CL1257 0
CL1258 0
CL1259 0
CL1260 0
CL1261 0
CL1262 0
CL1263 0
CL1264 0
CL1265 0
CL1266 0
CL1267 0
CL1268 0
CL1269 0
CL1270 0
CL1271 0
CL1272 0
CL1273 2.8238696103688454e-14
CL1274 0
CL1275 0
CL1276 0
CL1277 0
CL1278 0
CL1279 0
CL1280 0
CL1281 0.732340447639804
CL1282 1
CL1283 0
CL1284 0
CL1285 0
CL1286 0
CL1287 0
CL1288 0
CL1289 0
CL1290 0
CL1291 0
CL1292 0
CL1293 0
CL1294 0
CL1295 0
CL1296 0
CL1297 0
CL1298 0
CL1299 0
CL1300 0
CL1301 0
CL1302 0
CL1303 0
CL1304 0
CL1305 0
CL1306 0
CL1307 0
CL1308 0
CL1309 0
CL1310 0
CL1311 0
CL1312 0
CL1313 0
CL1314 0
CL1315 0
CL1316 0
CL1317 0
CL1318 0
CL1319 0
CL1320 0
CL1321 0
CL1322 0
CL1323 0
CL1324 0
CL1325 0
CL1326 0
CL1327 0
CL1328 0
CL1329 0
CL1330 0
CL1331 0
CL1332 0
CL1333 0
CL1334 0
CL1335 0
CL1336 0
CL1337 0
CL1338 0
CL1339 0
CL1340 0
CL1341 0
CL1342 0
CL1343 0
CL1344 0
CL1345 0
CL1346 0
CL1347 0
CL1348 0
CL1349 0
CL1350 0
CL1351 0
CL1352 0
CL1353 0
CL1354 0
CL1355 0
CL1356 0
CL1357 0
CL1358 0
CL1359 0
CL1360 0
CL1361 0
CL1362 0
CL1363 0
CL1364 0
CL1365 0.478125
CL1366 6.8592486349876058e-01
CL1367 0
CL1368 0
CL1369 0
CL1370 0
CL1371 0
CL1372 0
CL1373 0
CL1374 0
CL1375 3.2081249999999895e-01
CL1376 0
CL1377 0
CL1378 0
CL1379 4.7812499999999980e-01
CL1380 5.9803927062775142e-01
CL1381 0
CL1382 0
CL1383 0
CL1384 0
CL1385 0
CL1386 0
CL1387 0
CL1388 0
CL1389 0
CL1390 0
CL1391 1
CL1392 1
CL1393 0.521875
CL1394 3.1407513650123947e-01
CL1395 0
CL1396 0
CL1397 0
CL1398 0
CL1399 0
CL1400 0
CL1401 0
CL1402 0
CL1403 0.679187500000001
CL1404 0
CL1405 0
CL1406 0
CL1407 5.2187500000000020e-01
CL1408 4.0196072937224858e-01
CL1409 0
CL1410 0
CL1411 0
CL1412 0
CL1413 0
CL1414 0
CL1415 0
CL1416 0
CL1417 0
CL1418 0
CL1419 0
CL1420 0
CL1421 0
CL1422 0
CL1423 0
CL1424 0
CL1425 0
CL1426 0
CL1427 0
CL1428 0
CL1429 0
CL1430 0
CL1431 0
CL1432 0
CL1433 0
CL1434 0
CL1435 0
CL1436 0
CL1437 0
CL1438 0
CL1439 0
CL1440 0
CL1441 0
CL1442 0
CL1443 0
CL1444 0
CL1445 0
CL1446 0
CL1447 0
CL1448 0
CL1449 0
CL1450 0
CL1451 0
CL1452 0
CL1453 0
CL1454 0
CL1455 2.8513761467889931e-01
CL1456 0
CL1457 0
CL1458 0
CL1459 0
CL1460 0
CL1461 0
CL1462 0
CL1463 0
CL1464 0
CL1465 0
CL1466 0
CL1467 0
CL1468 0
CL1469 0
CL1470 0
CL1471 0
CL1472 0
CL1473 0
CL1474 0
CL1475 0
CL1476 0
CL1477 0
CL1478 3.0502732256698767e-01
CL1479 0
CL1480 0
CL1481 0
CL1482 0
CL1483 7.1486238532110069e-01
CL1484 0
CL1485 0
CL1486 0
CL1487 0
CL1488 0
CL1489 0
CL1490 0
CL1491 0
CL1492 1.7602094771046106e-01
CL1493 0
CL1494 0
CL1495 0
CL1496 0
CL1497 0
CL1498 0
CL1499 0
CL1500 0
CL1501 0
CL1502 0
CL1503 5.3211009174311941e-01
CL1504 5.3211009174311941e-01
CL1505 1
CL1506 6.9497267743301228e-01
CL1507 0
CL1508 0
CL1509 0
CL1510 0
CL1511 0
CL1512 0
CL1513 0
CL1514 0
CL1515 1
CL1516 0
CL1517 0
CL1518 0
CL1519 1
CL1520 8.2397905228953894e-01
CL1521 0
CL1522 0
CL1523 0
CL1524 0
CL1525 0
CL1526 0
CL1527 0
CL1528 0
CL1529 0
CL1530 0
CL1531 4.6788990825688054e-01
CL1532 4.6788990825688054e-01
CL1533 0
CL1534 0
CL1535 0
CL1536 0
CL1537 0
CL1538 0
CL1539 0
CL1540 0
CL1541 0
CL1542 0
CL1543 0
CL1544 0
CL1545 0
CL1546 0
CL1547 0
CL1548 0
CL1549 0
CL1550 0
CL1551 0
CL1552 0
CL1553 0
CL1554 0
CL1555 0
CL1556 0
CL1557 0
CL1558 1
CL1559 0
CL1560 0
CL1561 1
CL1562 1
CL1563 0
CL1564 0
CL1565 0
CL1566 0
CL1567 0
CL1568 0
CL1569 0
CL1570 0
CL1571 0
CL1572 0
CL1573 0
CL1574 0
CL1575 0
CL1576 0
CL1577 0
CL1578 0
CL1579 0
CL1580 0
CL1581 1
CL1582 0
CL1583 0
CL1584 0
CL1585 0
CL1586 1
CL1587 0
CL1588 0
CL1589 1
CL1590 1
CL1591 0
CL1592 0
CL1593 0
CL1594 0
CL1595 0
CL1596 0
CL1597 0
CL1598 0
CL1599 0
CL1600 0
CL1601 0
CL1602 0
CL1603 0
CL1604 0
CL1605 0
CL1606 0
CL1607 0
CL1608 0
CL1609 0
CL1610 0
CL1611 0
CL1612 0
CL1613 0
CL1614 0
CL1615 1
CL1616 1
CL1617 1
CL1618 1
CL1619 0
CL1620 0
CL1621 0
CL1622 0
CL1623 0
CL1624 0
CL1625 0
CL1626 0
CL1627 1
CL1628 0
CL1629 0
CL1630 0
CL1631 1
CL1632 1
CL1633 0
CL1634 0
CL1635 0
CL1636 0
CL1637 0
CL1638 0
CL1639 0
CL1640 0
CL1641 0
CL1642 0
CL1643 1
CL1644 1
CL1645 1
CL1646 1
CL1647 0
CL1648 0
CL1649 0
CL1650 0
CL1651 1
CL1652 0
CL1653 0
CL1654 0
CL1655 1
CL1656 0
CL1657 0
CL1658 0
CL1659 1
CL1660 1
CL1661 0
CL1662 0
CL1663 0
CL1664 0
CL1665 0
CL1666 0
CL1667 0
CL1668 0
CL1669 0
CL1670 0
CL1671 0
CL1672 0
CL1673 1.4089007792207788e+00
CL1674 0
CL1675 0
CL1676 0
CL1677 0
CL1678 0
CL1679 0
CL1680 0
CL1681 1.6417920000001629e+00
CL1682 5.1350000000000238e+00
CL1683 0
CL1684 2.2120000000000091e+00
CL1685 2.2120000000000335e+00
CL1686 2.2120000000000126e+00
CL1687 4.5820000000000007e+00
CL1688 0
CL1689 0
CL1690 0
CL1691 0
CL1692 1.8219294271667511e+01
CL1693 0
CL1694 1.3524000000000080e+00
CL1695 1.3524000000000302e+00
CL1696 1.3524000000000111e+00
CL1697 1.3523999999999980e+00
CL1698 0
CL1699 0
CL1700 1.38
CL1701 1.3800000000001238e+00
CL1702 1.38
CL1703 0
CL1704 2.6036460000000021e+00
CL1705 2.6036460000000021e+00
CL1706 2.6036460000000021e+00
CL1707 2.6036460000000021e+00
CL1708 0
CL1709 2.2563
CL1710 4.2478292904539252e+00
CL1711 4.2478292904539243e+00
CL1712 4.2478292904539243e+00
CL1713 0
CL1714 0
CL1715 0
CL1716 0
CL1717 0
CL1718 0
CL1719 0
CL1720 0
CL1721 0
CL1722 0
CL1723 6.9300000000000006e-01
CL1724 6.9300000000000006e-01
CL1725 6.9300000000000117e-01
CL1726 2.5814612257521681e+00
CL1727 4.9061612257521672e+00
CL1728 0
CL1729 0
CL1730 0
CL1731 0
CL1732 0
CL1733 0
CL1734 0
CL1735 0
CL1736 0
CL1737 0
CL1738 0
CL1739 0
CL1740 0
CL1741 0
CL1742 0
CL1743 0
CL1744 0
CL1745 0
CL1746 0
CL1747 0
CL1748 0
CL1749 0
CL1750 0
CL1751 0
CL1752 0
CL1753 0
CL1754 0
CL1755 0
CL1756 0
CL1757 0
CL1758 0
CL1759 0
CL1760 0
CL1761 0
CL1762 0
CL1763 0
CL1764 0
CL1765 0
CL1766 0
CL1767 0
CL1768 0
CL1769 0
CL1770 0
CL1771 0
CL1772 0
CL1773 0
CL1774 0.2
CL1775 0.2
CL1776 0.2
CL1777 1.9999999999999984e-01
CL1778 0
CL1779 0
CL1780 0
CL1781 0
CL1782 0
CL1783 1.2850860737382543e+04
CL1784 0
CL1785 1.6196939550368228e+02
CL1786 2.6349666241828470e+02
CL1787 4.0332847279412863e+02
CL1788 5.9473223623457943e+02
CL1789 5.6980383491999987e+02
CL1790 693.401981384606
CL1791 1.0488299929485556e+03
CL1792 1.6041413072618686e+03
CL1793 1.5584965843448451e+03
CL1794 1.4558411325261295e+02
CL1795 1.6085087407607006e+02
CL1796 1.8649319806539305e+02
CL1797 2.3705901981848754e+02
CL1798 3.2463337615628012e+02
CL1799 2.5291511688311684e+02
CL1800 3.7855384000000078e+02
CL1801 5.1341501161815972e+02
CL1802 6.9239436516329954e+02
CL1803 1.7951764560299885e+03
CL1804 0
CL1805 28
CL1806 28
CL1807 28
CL1808 2.7999999999999979e+01
